param m := 2 ;
param n := 3 ;
param k := 3 ;

param a :=
 1 1 2
 1 2 3
 1 3 5
 2 1 4
 2 2 2
 2 3 7
 ;

param c:=
 1 30
 2 20
 3 50
 ;

param b :=
 1 4000
 2 6000
 ;

param d :=
 1 200
 2 200
 3 150
 ;